certificates/rado_a10_c84_N25.drat
-21 -25 0
9 -25 0
-25 0
-7 -9 0
-9 0
3 0
15 0
10 0
19 0
0
